c Random 5-CNF over 30 variables and 180 clauses
c Generated with `cnfgen`
c (C) 2012-2016 Massimo Lauria <lauria.massimo@gmail.com>
c https://massimolauria.github.io/cnfgen
c
c COMMAND LINE: cnfgen --output tmp-5-30-180.dimacs --output-format dimacs randkcnf 5 30 180
c
c sdimacs generated by gen-sdimacs
c
p cnf 30 180
r 0.5 1 2 3 4 5 6 7 8 9 10 11 12 13 14 15 0
e  16 17 18 19 20 21 22 23 24 25 26 27 28 29 30 0
1 -13 -15 -25 30 0
-2 -3 -4 9 24 0
-1 3 12 -25 26 0
8 -20 -22 23 -30 0
-6 10 -14 -24 -27 0
-10 19 -20 -21 25 0
1 10 16 -17 18 0
9 -14 -23 -26 27 0
-4 -6 13 -14 -29 0
-6 -8 -11 -18 28 0
6 8 20 -22 24 0
-3 11 -18 -28 -29 0
1 -4 -8 13 -29 0
1 -2 -5 -7 -15 0
-1 -9 15 -16 -22 0
7 8 -9 -10 15 0
9 -11 12 21 22 0
10 -12 -20 -21 22 0
-8 9 11 -12 14 0
2 -11 14 -19 25 0
1 -2 4 11 -13 0
-4 11 14 18 -23 0
8 10 11 18 -28 0
7 10 15 -23 -24 0
6 22 -26 -28 -29 0
13 -15 -17 -27 30 0
-3 6 16 19 25 0
-9 13 -14 18 28 0
-5 10 15 -27 -29 0
1 2 -9 21 24 0
4 15 -23 -24 -25 0
-5 -7 12 18 -21 0
9 10 15 22 29 0
-2 -5 6 -10 26 0
4 13 -14 -16 -18 0
-6 -12 20 24 26 0
2 3 -6 -24 -28 0
2 -11 12 24 26 0
2 -8 -9 11 15 0
-11 12 -14 18 -28 0
-4 -12 -21 23 -27 0
-8 -9 -10 -11 18 0
-4 9 -13 -19 -30 0
-7 13 -15 25 28 0
2 -3 -5 -14 18 0
-1 18 -20 23 26 0
2 9 11 15 29 0
-12 -21 -23 -27 -29 0
8 20 22 24 30 0
-12 -15 17 19 29 0
-8 12 20 28 -29 0
-3 4 -7 14 19 0
-9 18 -21 -24 -29 0
-1 -2 -4 -10 -29 0
-5 -8 -14 -18 -26 0
-1 -5 6 -24 27 0
-3 -5 -11 13 30 0
4 6 -9 -13 -23 0
-1 -7 15 -16 25 0
-1 11 -13 -15 -30 0
-2 13 -15 21 -27 0
-4 7 -10 -17 -30 0
4 -11 -16 21 30 0
-9 -10 -18 -25 -27 0
3 -6 -7 10 -22 0
9 12 -13 17 30 0
-4 10 -17 -19 22 0
-3 9 18 -23 -29 0
3 5 -9 -13 -19 0
6 -16 -21 27 -28 0
12 19 -20 -21 -28 0
5 -11 -18 25 -30 0
-2 3 -13 19 29 0
-7 10 20 23 -25 0
5 -7 -18 25 -27 0
13 -14 -22 25 29 0
9 15 -21 -24 30 0
6 -18 -20 23 -29 0
-3 -6 -7 21 28 0
-2 12 16 17 24 0
-3 5 -9 -11 17 0
-1 -12 -18 -22 23 0
-3 -10 19 28 -29 0
-2 -3 -11 21 -24 0
-4 -9 -13 16 19 0
-9 -15 -17 29 30 0
4 8 -13 18 29 0
9 19 21 -23 24 0
3 11 -12 16 23 0
2 11 -13 -21 -22 0
-1 -3 4 -14 21 0
2 4 -20 25 29 0
2 5 15 17 -22 0
6 7 -11 26 -27 0
7 11 25 -29 -30 0
3 -5 8 -12 16 0
-6 16 28 29 -30 0
-2 11 -17 -18 25 0
-5 15 19 -23 30 0
-4 -6 -10 -26 29 0
-2 8 -9 13 17 0
3 8 14 -18 -25 0
2 -5 10 12 29 0
-1 4 -5 8 -14 0
-4 5 21 23 27 0
3 10 -20 21 24 0
-1 -13 15 -21 24 0
-3 -10 17 -21 28 0
-5 -10 20 26 30 0
8 -22 24 -26 28 0
-6 15 17 18 -20 0
-10 13 22 -24 -28 0
-4 17 -19 -25 26 0
2 4 11 -21 23 0
-18 19 -21 -22 -26 0
4 -9 14 -24 27 0
-1 2 5 10 29 0
2 -8 -14 15 30 0
6 11 -14 -20 26 0
-5 -19 23 -25 -30 0
13 -15 -19 -23 28 0
-1 20 21 27 -30 0
13 -17 -23 -24 30 0
-5 14 20 21 -26 0
-4 -10 -12 14 23 0
1 4 -20 23 30 0
-3 -8 -13 -16 18 0
-4 13 16 -20 -23 0
2 -4 -5 24 -27 0
-1 -4 19 -21 -25 0
14 -20 23 25 -26 0
-9 17 21 23 -29 0
3 5 12 -25 30 0
6 -9 -13 16 -19 0
-7 15 17 20 -25 0
-4 -5 -9 -24 30 0
-2 -9 -14 19 26 0
-6 -12 18 24 -26 0
1 -11 -18 24 28 0
4 -8 -9 -10 -12 0
4 -7 16 21 25 0
6 -10 -11 -22 25 0
-6 8 13 -19 -26 0
-7 18 -21 -24 27 0
8 -18 19 23 -27 0
-4 9 23 -28 29 0
-12 -23 -24 28 29 0
-10 -15 -25 -27 29 0
10 15 19 -20 -22 0
9 14 -21 -22 -29 0
-10 -11 -21 -26 -28 0
-4 9 11 13 -18 0
13 18 -24 -28 29 0
-3 -8 -9 13 19 0
3 -5 -15 -17 -26 0
-2 -4 -12 13 27 0
-5 6 -12 20 -29 0
-8 -19 -20 21 -29 0
-11 -18 22 -23 -30 0
5 -10 -12 19 -30 0
-5 -7 15 -24 25 0
1 4 -5 6 -8 0
-2 -3 7 -25 30 0
3 7 8 -11 25 0
4 19 -27 -29 30 0
-1 4 -6 -8 9 0
-5 13 20 -23 -30 0
2 10 -19 23 -24 0
9 -15 -17 20 29 0
-9 -10 -11 14 23 0
-15 -18 -20 29 30 0
1 4 10 -15 -29 0
-14 15 -22 25 -26 0
4 7 12 -14 -16 0
-9 15 -19 -22 27 0
2 7 -15 -16 28 0
3 13 -18 -21 -24 0
-6 -12 -15 27 30 0
17 -18 -19 -20 22 0
2 -7 19 24 26 0
